p cnf 720885 420
-91129 96 0
-96 -91137 0
156 -91489 0
-91497 -156 0
216 -91849 0
-91857 -216 0
276 -92209 0
-92217 -276 0
508 -93601 0
-93609 -508 0
568 -93961 0
-93969 -568 0
628 -94321 0
-94329 -628 0
688 -94681 0
-94689 -688 0
748 -95041 0
-95049 -748 0
-95061 -748 0
-96069 -920 0
920 -96073 0
-96081 -920 0
971 975 -96401 0
972 976 -96401 0
-971 -96403 0
-96403 -975 0
-972 -96405 0
-96405 -976 0
-971 -96407 0
-975 -96407 0
1023 1027 -96713 0
1024 1028 -96713 0
-1023 -96715 0
-96715 -1027 0
-1024 -96717 0
-96717 -1028 0
-1023 -96719 0
-1027 -96719 0
1075 1079 -97025 0
1076 1080 -97025 0
-1075 -97027 0
-97027 -1079 0
-1076 -97029 0
-97029 -1080 0
-1075 -97031 0
-1079 -97031 0
1127 1131 -97337 0
1128 1132 -97337 0
-1127 -97339 0
-97339 -1131 0
-1128 -97341 0
-97341 -1132 0
-1127 -97343 0
-1131 -97343 0
1319 1323 -98489 0
1320 1324 -98489 0
-1319 -98491 0
-98491 -1323 0
-1320 -98493 0
-98493 -1324 0
-1319 -98495 0
-1323 -98495 0
1371 1375 -98801 0
1372 1376 -98801 0
-1371 -98803 0
-98803 -1375 0
-1372 -98805 0
-98805 -1376 0
-1371 -98807 0
-1375 -98807 0
1423 1427 -99113 0
1424 1428 -99113 0
-1423 -99115 0
-99115 -1427 0
-1424 -99117 0
-99117 -1428 0
-1423 -99119 0
-1427 -99119 0
1475 1479 -99425 0
1476 1480 -99425 0
-1475 -99427 0
-99427 -1479 0
-1476 -99429 0
-99429 -1480 0
-1475 -99431 0
-1479 -99431 0
1719 1723 -100889 0
1720 1724 -100889 0
-1719 -100891 0
-100891 -1723 0
-1720 -100893 0
-100893 -1724 0
-1719 -100895 0
-1723 -100895 0
1771 1775 -101201 0
1772 1776 -101201 0
-1771 -101203 0
-101203 -1775 0
-1772 -101205 0
-101205 -1776 0
-1771 -101207 0
-1775 -101207 0
1823 1827 -101513 0
1824 1828 -101513 0
-1823 -101515 0
-101515 -1827 0
-1824 -101517 0
-101517 -1828 0
-1823 -101519 0
-1827 -101519 0
1875 1879 -101825 0
1876 1880 -101825 0
-1875 -101827 0
-101827 -1879 0
-1876 -101829 0
-101829 -1880 0
-1875 -101831 0
-1879 -101831 0
2119 2123 -103289 0
2120 2124 -103289 0
-2119 -103291 0
-103291 -2123 0
-2120 -103293 0
-103293 -2124 0
-2119 -103295 0
-2123 -103295 0
2171 2175 -103601 0
2172 2176 -103601 0
-2171 -103603 0
-103603 -2175 0
-2172 -103605 0
-103605 -2176 0
-2171 -103607 0
-2175 -103607 0
2223 2227 -103913 0
2224 2228 -103913 0
-2223 -103915 0
-103915 -2227 0
-2224 -103917 0
-103917 -2228 0
-2223 -103919 0
-2227 -103919 0
2519 2523 -105689 0
2520 2524 -105689 0
-2519 -105691 0
-105691 -2523 0
-2520 -105693 0
-105693 -2524 0
-2519 -105695 0
-2523 -105695 0
2571 2575 -106001 0
2572 2576 -106001 0
-2571 -106003 0
-106003 -2575 0
-2572 -106005 0
-106005 -2576 0
-2571 -106007 0
-2575 -106007 0
2623 2627 -106313 0
2624 2628 -106313 0
-2623 -106315 0
-106315 -2627 0
-2624 -106317 0
-106317 -2628 0
-2623 -106319 0
-2627 -106319 0
2867 2871 -107777 0
2868 2872 -107777 0
-2867 -107779 0
-107779 -2871 0
-2868 -107781 0
-107781 -2872 0
-2867 -107783 0
-2871 -107783 0
2919 2923 -108089 0
2920 2924 -108089 0
-2919 -108091 0
-108091 -2923 0
-2920 -108093 0
-108093 -2924 0
-2919 -108095 0
-2923 -108095 0
2971 2975 -108401 0
2972 2976 -108401 0
-2971 -108403 0
-108403 -2975 0
-2972 -108405 0
-108405 -2976 0
-2971 -108407 0
-2975 -108407 0
3267 3271 -110177 0
3268 3272 -110177 0
-3267 -110179 0
-110179 -3271 0
-3268 -110181 0
-110181 -3272 0
-3267 -110183 0
-3271 -110183 0
3319 3323 -110489 0
3320 3324 -110489 0
-3319 -110491 0
-110491 -3323 0
-3320 -110493 0
-110493 -3324 0
-3319 -110495 0
-3323 -110495 0
3371 3375 -110801 0
3372 3376 -110801 0
-3371 -110803 0
-110803 -3375 0
-3372 -110805 0
-110805 -3376 0
-3371 -110807 0
-3375 -110807 0
3667 3671 -112577 0
3668 3672 -112577 0
-3667 -112579 0
-112579 -3671 0
-3668 -112581 0
-112581 -3672 0
-3667 -112583 0
-3671 -112583 0
3719 3723 -112889 0
3720 3724 -112889 0
-3719 -112891 0
-112891 -3723 0
-3720 -112893 0
-112893 -3724 0
-3719 -112895 0
-3723 -112895 0
4067 4071 -114977 0
4068 4072 -114977 0
-4067 -114979 0
-114979 -4071 0
-4068 -114981 0
-114981 -4072 0
-4067 -114983 0
-4071 -114983 0
4119 4123 -115289 0
4120 4124 -115289 0
-4119 -115291 0
-115291 -4123 0
-4120 -115293 0
-115293 -4124 0
-4119 -115295 0
-4123 -115295 0
4267 4271 -116177 0
4268 4272 -116177 0
-4267 -116179 0
-116179 -4271 0
-4268 -116181 0
-116181 -4272 0
-4267 -116183 0
-4271 -116183 0
4415 4419 -117065 0
4416 4420 -117065 0
-4415 -117067 0
-117067 -4419 0
-4416 -117069 0
-117069 -4420 0
-4415 -117071 0
-4419 -117071 0
4467 4471 -117377 0
4468 4472 -117377 0
-4467 -117379 0
-117379 -4471 0
-4468 -117381 0
-117381 -4472 0
-4467 -117383 0
-4471 -117383 0
4815 4819 -119465 0
4816 4820 -119465 0
-4815 -119467 0
-119467 -4819 0
-4816 -119469 0
-119469 -4820 0
-4815 -119471 0
-4819 -119471 0
4867 4871 -119777 0
4868 4872 -119777 0
-4867 -119779 0
-119779 -4871 0
-4868 -119781 0
-119781 -4872 0
-4867 -119783 0
-4871 -119783 0
5015 5019 -120665 0
5016 5020 -120665 0
-5015 -120667 0
-120667 -5019 0
-5016 -120669 0
-120669 -5020 0
-5015 -120671 0
-5019 -120671 0
5215 5219 -121865 0
5216 5220 -121865 0
-5215 -121867 0
-121867 -5219 0
-5216 -121869 0
-121869 -5220 0
-5215 -121871 0
-5219 -121871 0
5415 5419 -123065 0
5416 5420 -123065 0
-5415 -123067 0
-123067 -5419 0
-5416 -123069 0
-123069 -5420 0
-5415 -123071 0
-5419 -123071 0
5459 5463 -123329 0
5460 5464 -123329 0
-5459 -123331 0
-123331 -5463 0
-5460 -123333 0
-123333 -5464 0
-5459 -123335 0
-5463 -123335 0
5511 5515 -123641 0
5512 5516 -123641 0
-5511 -123643 0
-123643 -5515 0
-5512 -123645 0
-123645 -5516 0
-5511 -123647 0
-5515 -123647 0
5599 5603 -124169 0
5600 5604 -124169 0
-5599 -124171 0
-124171 -5603 0
-5600 -124173 0
-124173 -5604 0
-5599 -124175 0
-5603 -124175 0
5651 5655 -124481 0
5652 5656 -124481 0
-5651 -124483 0
-124483 -5655 0
-5652 -124485 0
-124485 -5656 0
-5651 -124487 0
-5655 -124487 0
5739 5743 -125009 0
5740 5744 -125009 0
-5739 -125011 0
-125011 -5743 0
-5740 -125013 0
-125013 -5744 0
-5739 -125015 0
-5743 -125015 0
5791 5795 -125321 0
5792 5796 -125321 0
-5791 -125323 0
-125323 -5795 0
-5792 -125325 0
-125325 -5796 0
-5791 -125327 0
-5795 -125327 0
5931 5935 -126161 0
5932 5936 -126161 0
-5931 -126163 0
-126163 -5935 0
-5932 -126165 0
-126165 -5936 0
-5931 -126167 0
-5935 -126167 0
91137 91497 91857 92217 93609 93969 94329 94689 95049 96081 96407 96719 97031 97343 98495 98807 99119 99431 100895 101207 101519 101831 103295 103607 103919 105695 106007 106319 107783 108095 108407 110183 110495 110807 112583 112895 114983 115295 116183 117071 117383 119471 119783 120671 121871 123071 123335 123647 124175 124487 125015 125327 126167 0
96073 98493 100893 107781 110181 116181 117069 119469 120669 0
93601 96069 96405 103293 105693 112581 114981 121869 123069 125013 0
91129 98491 98805 101205 108093 110493 117381 119781 124173 125011 0
98489 0
125009 0
93961 96403 96717 100891 103605 106005 112893 115293 123333 124171 0
100889 0
96401 0
124169 0
91489 98803 99117 101517 103291 107779 108405 110805 123331 126165 0
107777 0
103289 0
98801 0
123329 0
94321 96715 97029 101203 103917 105691 106317 110179 125325 126163 0
110177 0
105689 0
101201 0
96713 0
126161 0
91849 99115 99429 101829 103603 108091 112579 117067 124485 125323 0
117065 0
112577 0
108089 0
103601 0
99113 0
125321 0
94681 97027 97341 101515 106003 110491 114979 119467 123645 124483 0
119465 0
114977 0
110489 0
106001 0
101513 0
97025 0
124481 0
92209 95061 99427 103915 108403 112891 117379 120667 121867 123643 0
120665 0
121865 0
117377 0
112889 0
108401 0
103913 0
99425 0
123641 0
95041 97339 101827 106315 110803 115291 116179 119779 123067 0
116177 0
123065 0
119777 0
115289 0
110801 0
106313 0
101825 0
97337 0
